Total weight: 1409.8907259250957
Route 1: 0 64 83 65 99 66 80 81 94 56 68 54 35 36 40 41 61 0 
Route 2: 0 42 39 72 67 62 84 57 87 16 17 13 9 10 0 
Route 3: 0 53 12 14 47 15 11 73 79 7 6 8 46 4 1 2 0 
Route 4: 0 45 5 3 43 44 38 37 71 93 49 20 24 58 77 25 0 
Route 5: 0 92 95 85 63 19 23 86 22 51 18 48 21 75 97 59 74 52 82 0 
Route 6: 0 96 50 33 31 29 27 26 28 30 32 34 89 76 91 0 
Route 7: 0 69 98 88 78 60 55 100 70 0 
Route 8: 0 90 0 
